SYSTEM                                  
   1.0002809046796339     
     3.6446821225936201    0.0000000000000000    0.0000000000000000
    -2.6651796534358621    2.4860662078201039    0.0000000000000000
    -0.4897479224092310   -1.2430246973227330    3.3909797674653541
  Si/79d9987ad87
               2
Direct
  0.7500000000000000  0.2500000000000000  0.5000000000000000
  0.0000000000000000  0.0000000000000000  0.0000000000000000

  0.00000000E+00  0.00000000E+00  0.00000000E+00
  0.00000000E+00  0.00000000E+00  0.00000000E+00
