SYSTEM
 -30.7513
   3.644682122593620   0.000000000000000   0.000000000000000
  -2.665179653435862   2.486066207820104   0.000000000000000
  -0.489747922409231  -1.243024697322733   3.390979767465354
  Si
   2
Direct
  0.750000000000000   0.250000000000000   0.500000000000000 
  0.000000000000000   0.000000000000000   0.000000000000000 
