Al                                      
   3.5499999999999998     
     2.8633999999999999    0.0000000000000000    0.0000000000000000
     1.4317000000000000    2.4797771411963616    0.0000000000000000
     1.4317000000000000    0.8265923803987874    2.3379563098284502
  Al/17880443556
               1
Direct
  0.0000000000000000  0.0000000000000000  0.0000000000000000

  0.00000000E+00  0.00000000E+00  0.00000000E+00
